p tw 20 53
0 1
0 7
0 14
0 15
0 4
0 10
1 4
1 16
1 17
1 3
1 5
2 3
2 6
2 16
2 12
3 18
4 8
4 9
4 16
4 11
5 6
5 9
5 14
5 8
5 11
5 15
6 10
6 14
6 8
6 19
6 9
7 16
7 14
7 11
7 8
8 16
8 9
9 12
9 10
10 11
10 13
11 14
11 13
11 15
11 16
12 16
12 14
12 19
13 17
13 19
15 16
17 18
17 19
